30
0 1 0.41 0.28
0 2 0.66 0.23
0 3 0.65 0.2
0 4 0.61 0.18
0 5 0.64 0.2
0 6 0.63 0.08
0 7 0.62 0.14
0 8 0.52 0.32
0 9 0.75 0.18
0 10 0.42 0.28
0 11 0.69 0.12
0 12 0.65 0.28
0 13 0.52 0.24
0 14 0.66 0.27
0 15 0.58 0.2
0 16 0.61 0.22
0 17 0.42 0.18
0 18 0.66 0.38
0 19 0.65 0.3
0 20 0.39 0.18
0 21 0.35 0.3
0 22 0.57 0.28
0 23 0.7 0.24
0 24 0.69 0.29
0 25 0.74 0.22
0 26 0.79 0.36
0 27 0.63 0.3
0 28 0.7 0.28
0 29 0.63 0.28
1 2 0.57 0.26
1 3 0.54 0.22
1 4 0.78 0.22
1 5 0.6 0.14
1 6 0.84 0.34
1 7 0.54 0.32
1 8 0.59 0.36
1 9 0.38 0.24
1 10 0.61 0.22
1 11 0.54 0.16
1 12 0.41 0.28
1 13 0.62 0.18
1 14 0.67 0.22
1 15 0.84 0.24
1 16 0.7 0.34
1 17 0.66 0.12
1 18 0.45 0.4
1 19 0.74 0.38
1 20 0.78 0.32
1 21 0.68 0.35
1 22 0.62 0.3
1 23 0.66 0.22
1 24 0.56 0.33
1 25 0.4 0.26
1 26 0.73 0.26
1 27 0.72 0.27
1 28 0.66 0.14
1 29 0.6 0.32
2 3 0.38 0.16
2 4 0.65 0.21
2 5 0.76 0.2
2 6 0.7 0.15
2 7 0.52 0.18
2 8 0.52 0.3
2 9 0.76 0.24
2 10 0.34 0.08
2 11 0.39 0.26
2 12 0.62 0.19
2 13 0.58 0.12
2 14 0.49 0.04
2 15 0.74 0.24
2 16 0.72 0.18
2 17 0.7 0.18
2 18 0.66 0.28
2 19 0.48 0.26
2 20 0.94 0.14
2 21 0.79 0.17
2 22 0.58 0.24
2 23 0.71 0.26
2 24 0.77 0.26
2 25 0.72 0.2
2 26 0.71 0.16
2 27 0.7 0.1
2 28 0.52 0.23
2 29 0.62 0.24
3 4 0.46 0.26
3 5 0.56 0.12
3 6 0.8 0.2
3 7 0.23 0.16
3 8 0.7 0.22
3 9 0.58 0.16
3 10 0.61 0.16
3 11 0.77 0.24
3 12 0.32 0.19
3 13 0.38 0.04
3 14 0.58 0.12
3 15 0.84 0.26
3 16 0.7 0.12
3 17 0.63 0.1
3 18 0.66 0.3
3 19 0.55 0.22
3 20 0.7 0.1
3 21 0.63 0.14
3 22 0.2 0.08
3 23 0.7 0.26
3 24 0.59 0.2
3 25 0.6 0.12
3 26 0.58 0.26
3 27 0.41 0.18
3 28 0.49 0.28
3 29 0.64 0.2
4 5 0.38 0.18
4 6 0.54 0.26
4 7 0.64 0.32
4 8 0.57 0.36
4 9 0.58 0.36
4 10 0.55 0.21
4 11 0.58 0.06
4 12 0.52 0.24
4 13 0.6 0.25
4 14 0.26 0.17
4 15 0.44 0.14
4 16 0.68 0.2
4 17 0.79 0.2
4 18 0.5 0.36
4 19 0.6 0.28
4 20 0.3 0.16
4 21 0.82 0.26
4 22 0.66 0.34
4 23 0.73 0.39
4 24 0.54 0.28
4 25 0.38 0.33
4 26 0.74 0.36
4 27 0.6 0.23
4 28 0.71 0.34
4 29 0.56 0.26
5 6 0.46 0.28
5 7 0.53 0.24
5 8 0.52 0.26
5 9 0.73 0.2
5 10 0.46 0.2
5 11 0.82 0.12
5 12 0.76 0.22
5 13 0.67 0.08
5 14 0.64 0.16
5 15 0.81 0.2
5 16 0.69 0.24
5 17 0.54 0.02
5 18 0.64 0.32
5 19 0.61 0.25
5 20 0.68 0.22
5 21 0.45 0.26
5 22 0.43 0.2
5 23 0.5 0.3
5 24 0.45 0.19
5 25 0.56 0.16
5 26 0.71 0.3
5 27 0.5 0.22
5 28 0.59 0.28
5 29 0.75 0.22
6 7 0.65 0.22
6 8 0.62 0.37
6 9 0.46 0.19
6 10 0.36 0.23
6 11 0.74 0.2
6 12 0.51 0.34
6 13 0.66 0.22
6 14 0.72 0.19
6 15 0.72 0.28
6 16 0.68 0.14
6 17 0.51 0.26
6 18 0.48 0.3
6 19 0.59 0.22
6 20 0.24 0.1
6 21 0.52 0.22
6 22 0.79 0.28
6 23 0.67 0.32
6 24 0.5 0.22
6 25 0.44 0.27
6 26 0.73 0.3
6 27 0.53 0.25
6 28 0.64 0.2
6 29 0.5 0.2
7 8 0.65 0.18
7 9 0.42 0.14
7 10 0.38 0.26
7 11 0.62 0.26
7 12 0.55 0.29
7 13 0.41 0.16
7 14 0.6 0.22
7 15 0.78 0.34
7 16 0.74 0.28
7 17 0.54 0.22
7 18 0.51 0.32
7 19 0.61 0.26
7 20 0.64 0.26
7 21 0.62 0.3
7 22 0.43 0.24
7 23 0.47 0.1
7 24 0.62 0.22
7 25 0.55 0.08
7 26 0.7 0.22
7 27 0.18 0.16
7 28 0.63 0.26
7 29 0.62 0.36
8 9 0.69 0.18
8 10 0.76 0.3
8 11 0.62 0.38
8 12 0.52 0.24
8 13 0.68 0.18
8 14 0.64 0.26
8 15 0.51 0.38
8 16 0.61 0.32
8 17 0.6 0.24
8 18 0.14 0.14
8 19 0.62 0.3
8 20 0.42 0.3
8 21 0.52 0.32
8 22 0.74 0.3
8 23 0.7 0.27
8 24 0.56 0.24
8 25 0.62 0.1
8 26 0.42 0.14
8 27 0.5 0.3
8 28 0.57 0.26
8 29 0.48 0.24
9 10 0.56 0.24
9 11 0.61 0.3
9 12 0.68 0.35
9 13 0.52 0.12
9 14 0.5 0.2
9 15 0.46 0.22
9 16 0.32 0.16
9 17 0.78 0.18
9 18 0.72 0.32
9 19 0.64 0.17
9 20 0.57 0.2
9 21 0.56 0.28
9 22 0.61 0.24
9 23 0.52 0.24
9 24 0.46 0.11
9 25 0.3 0.08
9 26 0.66 0.22
9 27 0.5 0.25
9 28 0.28 0.12
9 29 0.68 0.25
10 11 0.73 0.24
10 12 0.46 0.19
10 13 0.6 0.12
10 14 0.43 0.04
10 15 0.4 0.16
10 16 0.38 0.18
10 17 0.54 0.18
10 18 0.65 0.28
10 19 0.23 0.22
10 20 0.6 0.14
10 21 0.64 0.17
10 22 0.72 0.24
10 23 0.66 0.26
10 24 0.54 0.26
10 25 0.38 0.2
10 26 0.37 0.17
10 27 0.56 0.1
10 28 0.43 0.23
10 29 0.37 0.24
11 12 0.57 0.3
11 13 0.72 0.2
11 14 0.48 0.23
11 15 0.52 0.08
11 16 0.66 0.26
11 17 0.82 0.14
11 18 0.54 0.3
11 19 0.54 0.34
11 20 0.88 0.22
11 21 0.4 0.2
11 22 0.84 0.32
11 23 0.86 0.36
11 24 0.74 0.31
11 25 0.78 0.28
11 26 0.71 0.4
11 27 0.64 0.29
11 28 0.88 0.28
11 29 0.68 0.32
12 13 0.29 0.23
12 14 0.26 0.15
12 15 0.6 0.32
12 16 0.53 0.29
12 17 0.35 0.2
12 18 0.66 0.28
12 19 0.69 0.35
12 20 0.56 0.25
12 21 0.31 0.2
12 22 0.52 0.27
12 23 0.74 0.27
12 24 0.65 0.32
12 25 0.51 0.28
12 26 0.38 0.14
12 27 0.73 0.21
12 28 0.66 0.26
12 29 0.55 0.35
13 14 0.42 0.08
13 15 0.73 0.28
13 16 0.68 0.16
13 17 0.56 0.06
13 18 0.54 0.28
13 19 0.4 0.24
13 20 0.43 0.14
13 21 0.6 0.18
13 22 0.58 0.12
13 23 0.74 0.26
13 24 0.38 0.18
13 25 0.22 0.08
13 26 0.54 0.22
13 27 0.59 0.14
13 28 0.69 0.24
13 29 0.26 0.24
14 15 0.64 0.2
14 16 0.68 0.14
14 17 0.61 0.14
14 18 0.5 0.24
14 19 0.5 0.22
14 20 0.51 0.1
14 21 0.57 0.13
14 22 0.78 0.2
14 23 0.78 0.22
14 24 0.46 0.22
14 25 0.3 0.16
14 26 0.58 0.2
14 27 0.51 0.06
14 28 0.68 0.19
14 29 0.64 0.2
15 16 0.26 0.22
15 17 0.35 0.22
15 18 0.65 0.32
15 19 0.51 0.3
15 20 0.7 0.26
15 21 0.41 0.12
15 22 0.66 0.34
15 23 0.48 0.32
15 24 0.36 0.24
15 25 0.52 0.28
15 26 0.7 0.33
15 27 0.66 0.26
15 28 0.53 0.34
15 29 0.5 0.28
16 17 0.61 0.22
16 18 0.47 0.2
16 19 0.46 0.14
16 20 0.44 0.04
16 21 0.26 0.12
16 22 0.66 0.2
16 23 0.74 0.3
16 24 0.41 0.08
16 25 0.52 0.22
16 26 0.68 0.24
16 27 0.68 0.2
16 28 0.27 0.25
16 29 0.6 0.14
17 18 0.6 0.34
17 19 0.62 0.27
17 20 0.56 0.2
17 21 0.56 0.24
17 22 0.68 0.18
17 23 0.42 0.32
17 24 0.71 0.21
17 25 0.74 0.14
17 26 0.54 0.28
17 27 0.72 0.2
17 28 0.5 0.26
17 29 0.5 0.24
18 19 0.67 0.23
18 20 0.47 0.2
18 21 0.38 0.2
18 22 0.6 0.38
18 23 0.77 0.34
18 24 0.6 0.28
18 25 0.74 0.24
18 26 0.28 0.14
18 27 0.64 0.3
18 28 0.71 0.26
18 29 0.53 0.1
19 20 0.46 0.12
19 21 0.62 0.26
19 22 0.6 0.3
19 23 0.78 0.16
19 24 0.64 0.06
19 25 0.6 0.2
19 26 0.58 0.28
19 27 0.6 0.28
19 28 0.66 0.29
19 29 0.14 0.13
20 21 0.7 0.16
20 22 0.55 0.18
20 23 0.43 0.28
20 24 0.7 0.12
20 25 0.61 0.22
20 26 0.6 0.2
20 27 0.74 0.16
20 28 0.64 0.28
20 29 0.54 0.1
21 22 0.56 0.22
21 23 0.83 0.35
21 24 0.34 0.2
21 25 0.5 0.22
21 26 0.53 0.22
21 27 0.44 0.19
21 28 0.53 0.32
21 29 0.48 0.16
22 23 0.82 0.34
22 24 0.71 0.28
22 25 0.8 0.2
22 26 0.38 0.24
22 27 0.44 0.26
22 28 0.56 0.36
22 29 0.74 0.28
23 24 0.68 0.22
23 25 0.52 0.18
23 26 0.78 0.32
23 27 0.65 0.26
23 28 0.73 0.36
23 29 0.7 0.29
24 25 0.16 0.14
24 26 0.48 0.27
24 27 0.44 0.28
24 28 0.44 0.23
24 29 0.5 0.19
25 26 0.46 0.14
25 27 0.4 0.22
25 28 0.47 0.2
25 29 0.46 0.32
26 27 0.52 0.16
26 28 0.68 0.12
26 29 0.71 0.24
27 28 0.45 0.13
27 29 0.74 0.26
28 29 0.68 0.18
